2
20
29
40	35
1	1	7	13	
2	2	30	3	24	3	
3	1	9	10	
4	2	16	6	15	6	
5	1	14	8	
6	1	32	4	
7	1	29	2	
8	1	18	3	
9	2	4	16	17	5	
10	2	15	4	29	3	
11	2	6	18	18	7	
12	2	13	10	22	4	
13	1	18	10	
14	2	7	12	31	3	
15	1	25	2	
16	1	18	8	
17	2	18	7	11	4	
18	1	9	10	
19	1	29	3	
20	2	6	16	35	3	
